NAME : berlin52.tsp
TYPE : TOUR
DIMENSION : 52
TOUR_LENGTH : 8100.032081023945
TOUR_SECTION
1
22
32
49
35
34
36
39
40
37
38
48
24
5
15
6
4
25
12
28
27
26
47
13
14
52
11
51
33
43
10
9
8
41
19
45
3
17
7
2
42
30
21
18
31
23
20
50
44
46
16
29
-1
